param set_len = 44;
param target_sum = 11488691893;
param values := [1] 952531383 [2] 924376256 [3] 546774825 [4] 713658486 [5] 837240753 [6] 295336956 [7] 653687714 [8] 1047472919 [9] 41951178 [10] 538917190 [11] 281712120 [12] 458079137 [13] 1060966984 [14] 275184068 [15] 882377844 [16] 184297650 [17] 678702781 [18] 310538060 [19] 726312951 [20] 910743865 [21] 423471307 [22] 697349111 [23] 238014897 [24] 529956481 [25] 185532610 [26] 530192134 [27] 534954224 [28] 880321519 [29] 129769159 [30] 425424198 [31] 600406140 [32] 277213617 [33] 666027305 [34] 2880844 [35] 807676310 [36] 947742119 [37] 309196644 [38] 18719183 [39] 452465005 [40] 598299885 [41] 449584901 [42] 319476938 [43] 711697770 [44] 298697439 ;
